(set-logic QF_LRA)
(declare-fun X0 () Real )
(declare-fun Y0 () Real )
(declare-fun X1 () Real )
(declare-fun Y1 () Real )
(declare-fun X2 () Real )
(declare-fun Y2 () Real )
(declare-fun X3 () Real )
(declare-fun Y3 () Real )
(declare-fun X4 () Real )
(declare-fun Y4 () Real )
(declare-fun X5 () Real )
(declare-fun Y5 () Real )
(declare-fun Z () Real )
(declare-fun k () Real )
(assert (let
(( $goal (>= Z k) ))
(let
((
$phi ( and 
( or ( <= ( + X0 73 ) X1 )  ( <= ( + X1 27 ) X0 )  ( <= ( + Y0 54 ) Y1 )  ( <= ( + Y1 3 ) Y0 )  )
( or ( <= ( + X0 73 ) X2 )  ( <= ( + X2 4 ) X0 )  ( <= ( + Y0 54 ) Y2 )  ( <= ( + Y2 70 ) Y0 )  )
( or ( <= ( + X0 73 ) X3 )  ( <= ( + X3 75 ) X0 )  ( <= ( + Y0 54 ) Y3 )  ( <= ( + Y3 18 ) Y0 )  )
( or ( <= ( + X0 73 ) X4 )  ( <= ( + X4 81 ) X0 )  ( <= ( + Y0 54 ) Y4 )  ( <= ( + Y4 11 ) Y0 )  )
( or ( <= ( + X0 73 ) X5 )  ( <= ( + X5 53 ) X0 )  ( <= ( + Y0 54 ) Y5 )  ( <= ( + Y5 79 ) Y0 )  )
( or ( <= ( + X1 27 ) X2 )  ( <= ( + X2 4 ) X1 )  ( <= ( + Y1 3 ) Y2 )  ( <= ( + Y2 70 ) Y1 )  )
( or ( <= ( + X1 27 ) X3 )  ( <= ( + X3 75 ) X1 )  ( <= ( + Y1 3 ) Y3 )  ( <= ( + Y3 18 ) Y1 )  )
( or ( <= ( + X1 27 ) X4 )  ( <= ( + X4 81 ) X1 )  ( <= ( + Y1 3 ) Y4 )  ( <= ( + Y4 11 ) Y1 )  )
( or ( <= ( + X1 27 ) X5 )  ( <= ( + X5 53 ) X1 )  ( <= ( + Y1 3 ) Y5 )  ( <= ( + Y5 79 ) Y1 )  )
( or ( <= ( + X2 4 ) X3 )  ( <= ( + X3 75 ) X2 )  ( <= ( + Y2 70 ) Y3 )  ( <= ( + Y3 18 ) Y2 )  )
( or ( <= ( + X2 4 ) X4 )  ( <= ( + X4 81 ) X2 )  ( <= ( + Y2 70 ) Y4 )  ( <= ( + Y4 11 ) Y2 )  )
( or ( <= ( + X2 4 ) X5 )  ( <= ( + X5 53 ) X2 )  ( <= ( + Y2 70 ) Y5 )  ( <= ( + Y5 79 ) Y2 )  )
( or ( <= ( + X3 75 ) X4 )  ( <= ( + X4 81 ) X3 )  ( <= ( + Y3 18 ) Y4 )  ( <= ( + Y4 11 ) Y3 )  )
( or ( <= ( + X3 75 ) X5 )  ( <= ( + X5 53 ) X3 )  ( <= ( + Y3 18 ) Y5 )  ( <= ( + Y5 79 ) Y3 )  )
( or ( <= ( + X4 81 ) X5 )  ( <= ( + X5 53 ) X4 )  ( <= ( + Y4 11 ) Y5 )  ( <= ( + Y5 79 ) Y4 )  )
( >= X0 0)
( <= ( + X0 73) Z)
( >= Y0 0)
( <= ( + Y0 54 ) 100)
( >= X1 0)
( <= ( + X1 27) Z)
( >= Y1 0)
( <= ( + Y1 3 ) 100)
( >= X2 0)
( <= ( + X2 4) Z)
( >= Y2 0)
( <= ( + Y2 70 ) 100)
( >= X3 0)
( <= ( + X3 75) Z)
( >= Y3 0)
( <= ( + Y3 18 ) 100)
( >= X4 0)
( <= ( + X4 81) Z)
( >= Y4 0)
( <= ( + Y4 11 ) 100)
( >= X5 0)
( <= ( + X5 53) Z)
( >= Y5 0)
( <= ( + Y5 79 ) 100)
) )
)(=> $phi $goal))))